28 100 168 99 151 101 194 115 11 83 
48 179 68 196 191 87 33 97 175 
57 37 59 139 29 112 125 192 158 82 157 148 
169 16 136 22 106 80 145 76 120 67 
153 7 18 102 180 187 150 107 174 34 146 
163 92 31 72 129 91 19 30 
140 42 197 46 26 122 137 123 17 66 
162 149 111 198 95 116 126 154 64 
6 49 14 89 21 109 189 41 178 93 185 75 
142 4 172 62 159 138 20 121 141 
15 152 40 166 44 90 96 135 193 36 
156 103 183 184 110 55 13 2 
127 65 160 74 50 81 8 60 1 39 
54 108 165 85 56 38 32 23 117 114 70 
155 88 69 105 176 134 113 58 71 79 73 
63 200 170 10 77 
131 124 43 24 161 98 119 27 
47 167 190 144 
199 173 188 86 
182 195 9 143 
132 164 25 186 
5 181 35 104 
133 147 45 128 94 52 
12 78 
118 84 130 
3 51 
61 
177 53 
171 

